; benchmark generated from python API
(set-info :status unknown)
(declare-fun S_3 () Real)
(declare-fun S_2 () Real)
(declare-fun C () Real)
(declare-fun A_0 () Real)
(declare-fun S_4 () Real)
(declare-fun L_0 () Real)
(declare-fun S_1 () Real)
(declare-fun S_0 () Real)
(declare-fun L0 () Real)
(declare-fun B () Real)
(declare-fun A_1 () Real)
(declare-fun L_2 () Real)
(declare-fun A_3 () Real)
(declare-fun L_1 () Real)
(declare-fun L_3 () Real)
(declare-fun A_2 () Real)
(declare-fun A_4 () Real)
(assert
 (let (($x37 (>= L0 0.0)))
 (let (($x564 (>= C 5.0)))
 (let (($x556 (>= B 5.0)))
 (let (($x7714 (<= (+ (* 2.0 C) A_1 (* (- 1.0) L_0) (* (- 1.0) S_4)) 0.0)))
 (let (($x2134 (>= S_4 (+ A_3 (* (- 1.0) L_2)))))
 (let (($x7842 (or $x2134 (<= (+ (* 3.0 C) S_0 (* (- 1.0) S_4)) 0.0) $x7714)))
 (let (($x7260 (or (<= (+ A_1 (* (- 1.0) L_0) (* (- 1.0) S_2)) 0.0) (<= (+ C (* (- 1.0) S_2) S_0) 0.0))))
 (let (($x7631 (or (<= (+ A_1 (* (- 1.0) L_1) C) S_3) (<= (+ (* 2.0 C) (* (- 1.0) S_3) S_0) 0.0))))
 (let (($x7087 (<= (+ A_1 (* (- 1.0) L_0) L_3 (* (- 1.0) A_3) (* 2.0 C)) 0.0)))
 (let (($x816 (not (<= L_1 L_0))))
 (let (($x74 (= L_3 L_2)))
 (let ((?x578 (* (- 1.0) L_0)))
 (let ((?x895 (+ A_0 ?x578)))
 (let ((?x1366 (* (- 3.0) C)))
 (let ((?x380 (* (- 1.0) L_3)))
 (let ((?x534 (* (- 1.0) B)))
 (let ((?x353 (+ ?x534 ?x380 A_3 ?x1366)))
 (let (($x2582 (= L_3 L_1)))
 (let (($x2006 (not (= L_1 L_2))))
 (let (($x7380 (or $x816 $x2006 $x2582 (<= (+ A_2 ?x578 L_3 (* (- 1.0) A_3) C) 0.0))))
 (let (($x7357 (= (+ (* (- 2.0) C) ?x534 ?x380 (* (- 1.0) A_1) A_3 L_0) 0.0)))
 (let (($x10179 (or (not (<= (+ A_1 ?x578) (+ ?x534 ?x380 A_3 (* (- 2.0) C)))) $x7357)))
 (let ((?x1046 (* (- 2.0) C)))
 (let ((?x467 (+ ?x534 ?x380 A_3 ?x1046)))
 (let ((?x855 (+ A_1 ?x578)))
 (let (($x458 (<= ?x855 ?x467)))
 (let (($x1803 (not (= L_2 L_3))))
 (let (($x819 (not (<= L_2 L_1))))
 (let (($x54 (= L_1 L_0)))
 (let ((?x231 (* (- 1.0) C)))
 (let ((?x473 (* (- 1.0) L_2)))
 (let ((?x7178 (+ ?x534 ?x473 A_2 ?x231)))
 (let (($x7179 (<= ?x855 ?x7178)))
 (let (($x64 (= L_2 L_1)))
 (let (($x7235 (or $x54 $x74 (= (+ A_3 ?x380) (+ A_1 (* (- 1.0) L_1) (* 2.0 C))))))
 (let (($x10439 (or (= (+ ?x231 A_2 ?x473 ?x534 (* (- 1.0) A_1) L_0) 0.0) (not $x7179))))
 (let (($x7156 (or $x64 $x816 (<= (+ A_1 ?x578 L_2 (* (- 1.0) A_2) C) 0.0))))
 (let (($x822 (not (<= L_3 L_2))))
 (let (($x111 (>= S_1 S_0)))
 (let (($x117 (>= S_3 S_2)))
 (let (($x36 (>= L_0 L0)))
 (let (($x114 (>= S_2 S_1)))
 (let (($x122 (>= A_1 A_0)))
 (let (($x124 (>= A_3 A_2)))
 (let (($x125 (>= A_4 A_3)))
 (and (<= (+ A_2 ?x473) S_4) (<= (+ A_1 (* (- 1.0) L_1)) S_3) (not (<= (+ A_2 ?x473) S_3)) $x125 $x124 $x122 $x114 $x36 $x117 (or $x74 (<= S_3 (+ A_3 ?x380 ?x534))) (or $x64 (<= S_2 (+ A_2 ?x473 ?x534))) (or $x54 (<= S_1 (+ A_1 (* (- 1.0) L_1) ?x534))) (or $x74 (<= S_4 (+ A_3 ?x380 ?x534 C))) $x111 (<= S_4 (+ A_4 ?x380)) (or $x54 $x816) (or (not (= L_0 L_1)) (>= S_2 (+ A_1 ?x578 ?x534))) (or (not (= L_0 L_1)) (>= S_1 (+ ?x534 ?x578 A_1 ?x231))) (>= S_3 (+ A_2 ?x473 ?x534)) (or $x64 $x819) (or $x64 $x822 (<= (+ ?x231 (* (- 1.0) A_2) A_3) 0.0)) (or $x74 $x822) (>= S_3 (+ ?x534 ?x380 A_3 ?x231)) (>= S_2 (+ A_1 (* (- 1.0) L_1) ?x534)) (>= S_4 (+ A_3 ?x380 ?x534)) (or $x54 $x64 (= (+ A_2 ?x473) (+ A_1 (* (- 1.0) L_1) C))) (or $x64 $x74 (= (+ A_3 ?x380) (+ A_2 ?x473 C))) (>= S_1 (+ ?x534 (* (- 1.0) L_1) A_1 ?x231)) (or (not (= L_0 L_1)) (<= (+ ?x534 A_1 ?x231) A_0)) (<= (+ ?x534 (* (- 1.0) L_1) A_1 ?x231) ?x895) (>= S_0 (+ ?x534 (* (- 1.0) L_1) A_1 ?x1046)) (or $x64 (<= (+ ?x231 (* (- 1.0) A_2) L_2 B S_3) 0.0)) (or $x64 (<= (+ ?x1046 (* (- 1.0) A_2) L_2 B S_4) 0.0)) $x7156 $x10439 (or $x2134 (<= (+ C A_2 ?x473 ?x534 (* (- 1.0) S_4)) 0.0)) (or $x54 (<= S_0 (+ ?x534 (* (- 1.0) L_1) A_1 ?x231))) (or $x74 (<= S_1 ?x467)) (or $x74 (<= S_2 (+ ?x534 ?x380 A_3 ?x231))) (or $x54 (<= S_2 (+ A_1 (* (- 1.0) L_1) ?x534 C))) (>= S_2 ?x467) $x7235 (>= S_3 (+ A_1 (* (- 1.0) L_1) ?x534 C)) (or $x54 $x2006 (<= (+ A_2 (* (- 1.0) A_1) ?x231) 0.0)) (<= (+ ?x534 ?x473 A_2 ?x1046) ?x895) (or $x64 (<= S_1 ?x7178)) (or $x64 (<= S_0 (+ ?x534 ?x473 A_2 ?x1046)) $x7179) (>= S_2 ?x7178) (>= S_0 (+ ?x534 ?x473 A_2 ?x1366)) (>= S_1 (+ ?x534 ?x473 A_2 ?x1046)) (or $x2134 (>= S_4 (+ A_1 (* (- 1.0) L_1) ?x534 (* 2.0 C)))) (or $x54 (<= S_4 (+ A_1 (* (- 1.0) L_1) ?x534 (* 3.0 C)))) (or $x54 (<= S_3 (+ A_1 (* (- 1.0) L_1) ?x534 (* 2.0 C)))) (or $x54 $x819 $x1803 (<= (+ A_3 (* (- 1.0) A_1) ?x1046) 0.0)) (or $x74 (<= S_0 ?x353) $x458) (>= S_1 ?x353) (>= S_0 (+ ?x534 ?x380 A_3 (* (- 4.0) C))) (<= (+ ?x231 (* (- 1.0) A_1) L_0 S_2) 0.0) (<= (+ (* (- 1.0) A_1) L_0 S_1) 0.0) $x10179 $x7380 (<= ?x353 ?x895) (or $x74 $x816 $x7087) (<= (+ (* (- 4.0) C) S_3 (* (- 1.0) S_0)) 0.0) (<= S_4 (+ A_3 ?x473 C)) (<= (+ ?x1046 S_1 (* (- 1.0) S_0)) 0.0) (<= (+ ?x1366 S_2 (* (- 1.0) S_0)) 0.0) (or $x2134 (<= (+ C S_2 (* (- 1.0) S_4)) 0.0)) (or $x2134 (<= (+ (* 2.0 C) S_1 (* (- 1.0) S_4)) 0.0)) $x7631 (<= (+ ?x1046 L_0 S_2 (* (- 1.0) A_0)) 0.0) (<= (+ ?x231 L_0 S_1 (* (- 1.0) A_0)) 0.0) $x7260 (<= (+ ?x1366 (* (- 1.0) A_1) L_0 S_4) 0.0) (<= (+ (* (- 4.0) C) (* (- 1.0) S_1) S_4) 0.0) (<= (+ ?x1366 L_0 S_3 (* (- 1.0) A_0)) 0.0) (<= (+ ?x1046 (* (- 1.0) A_1) L_0 S_3) 0.0) (<= (+ ?x1046 S_2 (* (- 1.0) S_1)) 0.0) $x7842 (<= (+ ?x1366 (* (- 1.0) S_1) S_3) 0.0) (<= (+ ?x1046 (* (- 1.0) S_3) S_4) 0.0) (<= (+ (* (- 5.0) C) (* (- 1.0) S_0) S_4) 0.0) $x556 $x564 $x37 (<= (+ L_0 S_0 (* (- 1.0) A_0)) 0.0) (<= (+ ?x1366 (* (- 1.0) S_2) S_4) 0.0) (<= (+ C S_1 (* (- 1.0) S_3)) 0.0) (<= (+ (* (- 4.0) C) L_0 S_4 (* (- 1.0) A_0)) 0.0) (<= (+ ?x1046 (* (- 1.0) S_2) S_3) 0.0))))))))))))))))))))))))))))))))))))))))))))))))
(check-sat)
